Running for instance ./models/c109.txt
Generating routes...
Execution time:  0.124332583333  minutes
Academic license - for non-commercial use only
Warning: constraint name "Cliente esta na rota" has a space
Optimize a model with 26 rows, 5000 columns and 34018 nonzeros
Variable types: 0 continuous, 5000 integer (0 binary)
Coefficient statistics:
  Matrix range     [1e+00, 1e+00]
  Objective range  [3e+01, 2e+02]
  Bounds range     [1e+00, 1e+00]
  RHS range        [1e+00, 2e+01]
Found heuristic solution: objective 683.7566886
Presolve removed 0 rows and 1848 columns
Presolve time: 0.03s
Presolved: 26 rows, 3152 columns, 22527 nonzeros
Variable types: 0 continuous, 3152 integer (3152 binary)

Root relaxation: objective 2.499843e+02, 86 iterations, 0.00 seconds

    Nodes    |    Current Node    |     Objective Bounds      |     Work
 Expl Unexpl |  Obj  Depth IntInf | Incumbent    BestBd   Gap | It/Node Time

     0     0  249.98431    0   15  683.75669  249.98431  63.4%     -    0s
H    0     0                     339.9190369  249.98431  26.5%     -    0s
H    0     0                     264.0421677  249.98431  5.32%     -    0s
     0     0  253.18994    0   16  264.04217  253.18994  4.11%     -    0s
     0     0  253.18994    0   15  264.04217  253.18994  4.11%     -    0s
H    0     0                     259.7107133  253.18994  2.51%     -    0s
     0     0 infeasible    0       259.71071  259.71071  0.00%     -    0s

Cutting planes:
  Clique: 3
  MIR: 3
  Zero half: 1

Explored 1 nodes (206 simplex iterations) in 0.10 seconds
Thread count was 8 (of 8 available processors)

Solution count 4: 259.711 264.042 339.919 683.757 

Optimal solution found (tolerance 1.00e-04)
Best objective 2.597107133116e+02, best bound 2.597107133116e+02, gap 0.0000%
25 24 20 7 10 9 11 6 4
5 3 8 9 4 1 23 22
13 17 18 15 19 12 16
Distance: 259.710713312
Execution time:  0.131598766667  minutes
